treewidth/data/WatkinsSnarkGraph.gr
p tw 50 75
1 47
1 50
1 5
2 8
2 11
2 15
13 18
13 21
13 25
24 28
24 31
24 34
35 38
35 41
35 44
46 47
46 6
46 42
47 48
48 49
48 4
49 50
49 36
50 3
3 4
3 7
4 5
5 6
6 20
7 8
7 16
8 9
9 10
9 14
10 11
10 45
11 12
12 14
12 17
14 15
15 16
16 30
17 18
17 26
18 19
19 20
19 23
20 21
21 22
22 23
22 27
23 25
25 26
26 40
27 28
27 36
28 29
29 30
29 33
30 31
31 32
32 33
32 37
33 34
34 36
37 38
37 45
38 39
39 40
39 43
40 41
41 42
42 43
43 44
44 45
