treewidth/data/WatkinsSnarkGraph.td
c width = 7, time = 1.661513
s td 24 8 50
b 1 3 6 16 22 36 38 40 45
b 2 3 5 6 36 38 40 45 46
b 3 1 3 5 36 46 48 50
b 4 3 4 5 48
b 5 1 46 47 48
b 6 36 48 49 50
b 7 35 38 40 41 43 45 46
b 8 38 39 40 43
b 9 41 42 43 46
b 10 35 43 44 45
b 11 3 6 16 17 22 25 40 45
b 12 3 9 11 14 15 16 17 45
b 13 2 3 7 8 9 11 15 16
b 14 9 10 11 45
b 15 11 12 14 17
b 16 6 13 17 19 21 22 25
b 17 13 17 18 19
b 18 6 19 20 21
b 19 19 22 23 25
b 20 17 25 26 40
b 21 16 22 29 31 34 36 38 45
b 22 22 24 27 28 29 31 34 36
b 23 16 29 30 31
b 24 29 31 32 33 34 37 38 45
3 4
3 5
3 6
2 3
7 8
7 9
7 10
2 7
1 2
12 13
12 14
12 15
11 12
16 17
16 18
16 19
11 16
11 20
1 11
21 22
21 23
21 24
1 21
